(set-logic ALL)
(declare-const q Bool)
(declare-const p Bool)
(assert (not (and q (xor (not (or p (not p))) p))))
(assert (= true q))
(assert (=> p (not q)))
(declare-const t Bool)
(assert (ite p q t))
(assert false)
(assert false)
(check-sat)
(exit)